543 5
10 10 10 10 10 

0 0 0 0 0 0 5 2 14 26 38 50 
0 0 0 0 0 0 4 3 4 5 6 
3 0 0 0 0 1 3 12 8 7 
1 0 0 0 0 7 4 12 8 7 318 
5 0 0 0 0 3 3 12 11 8 
2 0 0 0 0 6 3 12 11 8 
5 0 0 0 0 6 3 11 10 9 
6 0 0 0 0 5 2 10 9 
10 0 0 0 0 6 1 13 
1 0 0 0 0 5 1 13 
6 0 0 0 0 7 1 13 
5 0 0 0 0 4 1 13 
0 0 0 0 0 0 1 62 
0 0 0 0 0 0 6 15 16 17 18 20 513 
5 0 0 0 0 1 4 24 23 22 19 
2 0 0 0 0 6 2 22 19 
8 0 0 0 0 10 2 22 19 
7 0 0 0 0 5 2 22 19 
7 0 0 0 0 3 1 21 
5 0 0 0 0 4 1 23 
8 0 0 0 0 6 1 25 
7 0 0 0 0 4 1 25 
9 0 0 0 0 3 1 25 
10 0 0 0 0 8 1 25 
0 0 0 0 0 0 1 62 
0 0 0 0 0 0 4 27 28 29 30 
7 0 0 0 1 0 4 36 34 32 31 
5 0 0 0 4 0 2 32 31 
2 0 0 0 6 0 2 35 32 
3 0 0 0 10 0 2 34 32 
9 0 0 0 6 0 2 33 223 
10 0 0 0 2 0 1 37 
10 0 0 0 4 0 1 37 
3 0 0 0 5 0 1 37 
4 0 0 0 7 0 1 37 
6 0 0 0 5 0 1 37 
0 0 0 0 0 0 1 62 
0 0 0 0 0 0 5 39 40 41 42 48 
7 0 0 0 1 0 4 47 46 45 44 
2 0 0 0 10 0 4 45 44 43 416 
10 0 0 0 4 0 3 46 45 44 
8 0 0 0 7 0 2 45 44 
4 0 0 0 8 0 1 46 
2 0 0 0 2 0 1 49 
2 0 0 0 5 0 1 49 
6 0 0 0 3 0 1 49 
1 0 0 0 7 0 1 49 
6 0 0 0 3 0 1 49 
0 0 0 0 0 0 1 62 
0 0 0 0 0 0 5 51 52 53 54 55 
10 0 0 0 1 0 4 60 58 57 56 
3 0 0 0 3 0 2 60 56 
3 0 0 0 7 0 2 57 56 
5 0 0 0 3 0 1 57 
8 0 0 0 4 0 2 56 102 
10 0 0 0 7 0 1 59 
6 0 0 0 6 0 1 59 
2 0 0 0 8 0 1 59 
8 0 0 0 4 0 1 61 
6 0 0 0 7 0 1 61 
0 0 0 0 0 0 1 62 
0 0 0 0 0 0 5 63 105 147 189 201 
0 0 0 0 0 0 5 64 68 69 71 74 
8 1 0 1 2 1 4 77 72 67 65 
6 4 0 8 5 7 2 82 66 
5 5 0 9 3 4 8 103 89 84 81 79 78 73 70 
10 6 0 5 4 4 10 103 91 89 88 87 83 80 79 78 76 
9 3 0 4 3 6 6 91 88 84 83 75 72 
6 8 0 3 5 2 5 92 89 81 79 70 
1 8 0 5 4 4 6 91 90 88 87 83 75 
4 4 0 3 6 2 6 92 90 88 84 80 76 
7 7 0 6 5 2 4 87 82 81 79 
6 2 0 4 4 4 5 96 92 90 88 80 
2 5 0 2 8 4 3 89 85 79 
2 5 0 3 4 7 3 102 96 80 
6 5 0 1 1 6 3 102 101 81 
4 6 0 9 5 7 3 96 92 88 
3 3 0 5 5 3 2 90 85 
1 5 0 10 7 7 3 102 101 86 
10 5 0 9 5 5 2 101 85 
5 3 0 5 10 6 2 96 85 
10 3 0 6 2 6 2 94 89 
2 8 0 6 6 4 2 101 86 
8 7 0 4 5 5 2 96 86 
5 2 0 4 3 6 1 86 
7 5 0 6 6 4 3 99 95 93 
4 6 0 4 8 6 4 101 99 97 96 
8 4 0 4 6 8 3 98 97 94 
2 3 0 3 4 7 2 96 93 
8 6 0 6 7 4 4 102 100 98 97 
8 9 0 4 3 5 2 97 94 
2 4 0 3 3 5 1 93 
9 5 0 5 5 7 2 100 97 
2 6 0 2 5 10 2 101 99 
1 3 0 6 6 2 1 98 
9 7 0 9 6 4 1 98 
9 7 0 7 6 3 1 104 
6 4 0 7 6 2 1 104 
9 4 0 4 6 7 2 104 431 
5 6 0 7 5 4 1 104 
5 4 0 5 6 5 1 104 
1 6 0 5 6 5 1 104 
6 6 0 1 4 10 1 104 
0 0 0 0 0 0 1 543 
0 0 0 0 0 0 6 106 110 112 113 118 126 
7 1 2 1 1 0 3 114 109 107 
6 4 5 3 5 0 3 127 115 108 
3 8 4 6 3 0 8 145 138 137 133 129 122 119 111 
1 2 4 5 6 0 9 145 138 133 131 128 122 120 119 117 
6 3 4 3 5 0 3 131 129 114 
1 8 3 7 5 0 6 143 131 130 128 123 116 
3 7 5 4 9 0 5 143 137 133 130 116 
9 6 3 8 2 0 5 138 137 129 121 120 
3 5 5 8 6 0 4 128 127 121 119 
2 3 3 7 6 0 5 143 137 136 130 120 
5 4 6 3 3 0 2 136 120 
7 6 8 7 6 0 2 143 121 
8 2 10 5 2 0 2 133 124 
10 6 8 5 8 0 3 144 143 125 
4 5 4 4 7 0 2 144 124 
7 8 2 2 6 0 2 136 124 
9 4 8 3 7 0 2 143 124 
9 4 2 3 6 0 2 144 125 
1 3 5 2 3 0 1 125 
3 5 8 4 6 0 4 142 140 135 134 
5 5 6 4 7 0 2 137 130 
7 5 4 4 4 0 3 142 141 133 
10 6 2 5 7 0 3 144 140 139 
1 8 5 6 5 0 3 142 140 139 
8 4 4 9 8 0 1 132 
7 6 6 3 2 0 1 132 
7 6 4 7 5 0 2 144 140 
6 3 5 8 5 0 1 136 
5 6 6 7 8 0 1 141 
1 5 5 7 7 0 1 139 
10 9 8 6 4 0 1 139 
8 6 4 9 3 0 1 141 
9 5 5 8 3 0 1 143 
4 6 4 6 6 0 1 146 
9 3 5 4 4 0 1 146 
1 6 3 4 6 0 1 146 
4 7 3 2 4 0 1 146 
8 2 8 2 5 0 1 146 
10 6 8 5 2 0 1 146 
5 2 6 4 3 0 1 146 
0 0 0 0 0 0 1 543 
0 0 0 0 0 0 4 148 150 152 154 
5 1 1 1 0 1 4 157 156 153 149 
7 5 2 4 0 6 2 158 151 
5 2 5 6 0 6 5 187 164 159 158 155 
7 7 4 4 0 4 5 187 164 163 159 155 
4 4 5 4 0 3 4 164 161 159 155 
10 4 5 4 0 6 8 176 171 167 166 164 163 162 161 
3 4 2 10 0 3 5 175 167 166 160 157 
1 5 10 4 0 5 8 176 175 170 168 167 166 165 160 
10 7 3 7 0 7 7 175 171 170 168 167 166 163 
10 8 6 6 0 6 3 176 170 158 
8 4 5 4 0 4 4 171 168 165 163 
8 3 4 5 0 5 4 175 174 170 169 
6 6 7 5 0 7 3 174 171 169 
8 6 3 2 0 5 3 187 174 165 
8 2 5 5 0 4 3 175 170 168 
3 6 3 7 0 9 4 181 180 177 172 
10 2 8 7 0 6 2 174 169 
10 1 3 2 0 7 3 186 180 172 
8 6 5 7 0 3 3 186 181 172 
2 4 3 4 0 5 3 186 180 172 
5 8 5 6 0 10 3 186 180 173 
6 4 2 7 0 7 2 186 172 
2 5 6 6 0 6 4 186 185 180 178 
3 6 7 7 0 1 3 184 180 177 
5 2 4 6 0 6 1 173 
6 8 4 5 0 4 3 185 179 178 
5 6 4 7 0 3 3 185 181 179 
4 4 9 6 0 4 2 184 177 
7 4 8 7 0 4 1 177 
2 4 6 4 0 4 4 186 185 183 182 
1 6 8 7 0 5 2 184 182 
4 5 4 7 0 4 2 183 182 
8 9 4 5 0 3 2 183 182 
6 4 3 3 0 5 1 184 
10 4 4 4 0 5 1 188 
8 6 4 2 0 8 1 188 
5 6 8 6 0 2 1 188 
5 9 7 2 0 4 1 188 
10 5 7 2 0 8 1 188 
1 8 7 3 0 5 1 188 
0 0 0 0 0 0 1 543 
0 0 0 0 0 0 5 190 191 192 193 194 
9 0 1 0 0 0 4 199 198 197 195 
7 0 5 0 0 0 4 199 198 197 195 
2 0 5 0 0 0 3 199 197 195 
1 0 7 0 0 0 3 198 197 196 
6 0 6 0 0 0 2 197 195 
10 0 6 0 0 0 1 196 
1 0 4 0 0 0 1 200 
10 0 6 0 0 0 1 200 
10 0 5 0 0 0 1 200 
7 0 5 0 0 0 1 200 
0 0 0 0 0 0 5 243 275 307 339 351 
0 0 0 0 0 0 4 202 204 206 208 
1 1 1 2 0 2 4 211 210 207 203 
6 4 4 5 0 7 2 212 205 
6 5 8 4 0 2 5 241 218 213 212 209 
10 8 9 6 0 5 5 241 218 217 213 209 
1 6 4 3 0 7 4 218 215 213 209 
7 4 6 7 0 6 8 230 226 221 220 218 217 216 215 
6 9 9 5 0 4 5 229 221 220 214 211 
6 4 5 2 0 7 8 230 229 224 222 221 220 219 214 
2 3 6 2 0 6 7 229 226 224 222 221 220 217 
7 4 6 9 0 4 3 230 224 212 
8 5 5 3 0 1 4 226 222 219 217 
8 6 6 4 0 5 4 229 228 224 223 
8 4 4 5 0 8 4 231 228 226 223 
2 9 4 3 0 4 3 241 228 219 
6 7 4 8 0 6 3 229 224 222 
2 7 4 9 0 7 4 235 234 231 225 
2 8 5 4 0 5 2 228 223 
5 4 3 7 0 4 3 240 234 225 
1 7 7 3 0 4 3 240 235 225 
5 8 6 8 0 5 3 240 234 225 
6 4 7 6 0 4 3 240 234 227 
2 3 3 4 0 6 2 240 225 
3 2 5 7 0 6 4 240 238 234 232 
1 5 4 4 0 3 1 227 
4 5 4 3 0 5 4 240 239 238 234 
8 3 3 5 0 4 3 238 233 232 
8 2 2 8 0 7 3 238 235 233 
9 5 10 3 0 4 2 239 231 
3 4 5 2 0 4 1 231 
5 5 3 6 0 7 4 240 238 237 236 
10 3 5 5 0 4 2 239 236 
5 5 3 6 0 3 2 237 236 
3 4 6 1 0 6 2 237 236 
3 4 4 2 0 6 1 239 
7 5 5 3 0 10 1 242 
2 4 7 6 0 5 1 242 
2 6 2 6 0 6 1 242 
10 8 5 6 0 4 1 242 
5 6 7 10 0 2 1 242 
2 4 4 8 0 5 1 242 
0 0 0 0 0 0 1 543 
0 0 0 0 0 0 6 244 245 246 247 248 273 
6 1 0 1 1 0 5 256 252 251 250 249 
6 7 0 10 6 0 4 256 252 251 249 
8 3 0 8 5 0 4 272 252 251 249 
1 1 0 5 3 0 3 251 250 249 
6 10 0 6 9 0 2 271 250 
2 7 0 5 7 0 3 264 259 253 
9 6 0 3 3 0 3 270 257 254 
7 8 0 7 4 0 2 264 255 
6 4 0 3 2 0 5 268 267 264 263 258 
5 4 0 4 2 0 1 255 
4 5 0 9 4 0 1 255 
6 4 0 5 3 0 5 269 268 267 263 260 
4 6 0 4 3 0 5 269 268 267 263 260 
2 8 0 2 4 0 4 268 267 266 260 
4 8 0 4 5 0 2 270 260 
8 3 0 6 5 0 3 270 269 266 
9 5 0 2 2 0 1 261 
2 4 0 4 1 0 1 262 
9 3 0 4 8 0 1 265 
6 4 0 4 9 0 1 266 
8 4 0 5 5 0 1 270 
5 8 0 2 4 0 1 274 
9 6 0 3 8 0 1 274 
1 3 0 6 5 0 1 274 
10 7 0 5 6 0 1 274 
1 6 0 7 9 0 1 274 
1 3 0 2 9 0 1 274 
7 5 0 7 6 0 1 274 
9 4 0 7 3 0 1 274 
6 3 0 10 9 0 1 274 
0 0 0 0 0 0 1 543 
0 0 0 0 0 0 6 276 277 278 279 282 305 
3 1 1 0 0 1 5 288 287 286 283 280 
5 7 3 0 0 9 4 304 286 283 280 
1 4 3 0 0 6 3 283 281 280 
6 5 5 0 0 6 3 289 286 280 
8 2 8 0 0 6 3 296 292 284 
10 5 4 0 0 1 4 302 288 287 285 
10 7 4 0 0 6 4 303 288 287 285 
1 7 6 0 0 6 2 296 285 
1 6 4 0 0 6 1 285 
3 5 7 0 0 5 5 301 300 299 295 291 
2 7 3 0 0 2 3 298 296 290 
10 5 4 0 0 6 4 300 299 298 291 
4 5 5 0 0 6 3 300 295 291 
6 4 6 0 0 6 4 301 299 298 293 
9 5 8 0 0 2 1 291 
5 4 4 0 0 5 1 293 
3 8 6 0 0 6 2 302 298 
1 2 6 0 0 3 1 294 
9 5 7 0 0 7 1 297 
7 4 5 0 0 1 1 298 
9 5 3 0 0 6 1 302 
10 9 7 0 0 7 1 306 
5 2 2 0 0 7 1 306 
3 5 7 0 0 6 1 306 
8 4 5 0 0 6 1 306 
9 3 3 0 0 4 1 306 
8 8 8 0 0 6 1 306 
1 5 6 0 0 4 1 306 
7 4 5 0 0 3 1 306 
4 7 5 0 0 5 1 306 
0 0 0 0 0 0 1 543 
0 0 0 0 0 0 6 308 309 310 311 312 315 
7 3 0 1 1 0 5 325 323 316 314 313 
8 5 0 2 3 0 4 323 322 316 313 
7 9 0 4 7 0 3 325 316 313 
8 2 0 6 4 0 3 325 314 313 
8 3 0 7 8 0 2 325 314 
7 6 0 7 4 0 5 326 321 320 319 318 
1 4 0 3 7 0 5 327 326 322 321 320 
4 6 0 5 6 0 3 327 326 320 
7 10 0 5 8 0 1 317 
6 6 0 6 4 0 3 327 326 324 
3 5 0 6 3 0 2 327 324 
6 5 0 7 5 0 2 327 324 
1 6 0 6 7 0 1 324 
9 4 0 6 8 0 1 324 
2 4 0 2 7 0 1 324 
10 9 0 6 2 0 1 324 
1 4 0 6 7 0 5 337 336 333 329 328 
8 1 0 4 5 0 2 333 327 
1 4 0 8 7 0 2 336 328 
10 5 0 3 5 0 4 337 336 335 332 
3 3 0 2 2 0 2 335 331 
1 4 0 4 7 0 1 330 
10 5 0 3 5 0 2 335 334 
1 5 0 6 3 0 1 332 
3 7 0 7 9 0 1 334 
2 5 0 4 2 0 1 335 
3 6 0 9 4 0 1 338 
10 7 0 3 1 0 1 338 
3 4 0 6 5 0 1 338 
8 3 0 6 4 0 1 338 
0 0 0 0 0 0 1 543 
0 0 0 0 0 0 3 340 341 343 
6 0 0 0 1 0 5 349 348 347 346 342 
8 0 0 0 5 0 3 346 345 344 
1 0 0 0 5 0 1 344 
7 0 0 0 5 0 1 345 
5 0 0 0 7 0 1 350 
1 0 0 0 5 0 1 350 
1 0 0 0 6 0 1 350 
7 0 0 0 2 0 1 350 
7 0 0 0 5 0 1 350 
9 0 0 0 9 0 1 350 
0 0 0 0 0 0 5 383 405 427 449 471 
0 0 0 0 0 0 6 352 353 354 355 356 359 
10 0 5 1 1 0 5 369 367 360 358 357 
5 0 3 5 5 0 4 367 366 360 357 
4 0 4 4 4 0 3 369 360 357 
10 0 7 1 7 0 3 369 358 357 
3 0 6 7 6 0 2 369 358 
5 0 8 6 5 0 4 365 364 363 361 
2 0 6 6 2 0 5 371 370 366 365 364 
8 0 7 9 5 0 3 371 370 364 
9 0 2 4 10 0 1 362 
7 0 3 5 2 0 3 371 370 368 
2 0 8 7 3 0 3 371 370 368 
6 0 3 2 9 0 2 371 368 
1 0 9 3 5 0 1 368 
3 0 3 5 5 0 1 368 
4 0 6 5 4 0 1 368 
1 0 3 4 1 0 1 368 
3 0 4 8 9 0 5 381 380 377 373 372 
7 0 4 6 3 0 2 377 371 
6 0 4 6 5 0 2 380 372 
9 0 7 5 4 0 4 381 380 379 376 
6 0 2 6 8 0 2 379 375 
10 0 3 9 7 0 1 374 
8 0 7 1 5 0 2 379 378 
5 0 3 3 6 0 1 376 
1 0 5 3 2 0 1 378 
10 0 2 5 4 0 1 379 
5 0 8 8 6 0 1 382 
9 0 4 6 9 0 1 382 
7 0 10 6 4 0 1 382 
5 0 4 4 4 0 1 382 
0 0 0 0 0 0 1 543 
0 0 0 0 0 0 8 384 385 386 388 389 390 396 403 
5 0 0 2 1 0 4 402 400 391 387 
3 0 0 3 4 0 6 401 400 399 398 395 391 
1 0 0 4 4 0 4 401 399 398 394 
8 0 0 2 5 0 3 399 398 392 
8 0 0 5 4 0 3 401 400 391 
1 0 0 6 4 0 3 400 399 393 
4 0 0 7 9 0 1 391 
10 0 0 5 4 0 1 393 
9 0 0 8 4 0 1 393 
2 0 0 2 7 0 1 397 
7 0 0 5 4 0 1 397 
4 0 0 4 3 0 1 397 
9 0 0 2 3 0 1 398 
3 0 0 5 4 0 1 404 
9 0 0 5 7 0 1 404 
7 0 0 8 10 0 1 404 
8 0 0 8 9 0 1 404 
3 0 0 4 3 0 1 404 
1 0 0 10 7 0 1 404 
7 0 0 5 4 0 1 404 
0 0 0 0 0 0 1 543 
0 0 0 0 0 0 8 406 407 408 410 411 412 414 425 
1 1 0 0 0 2 4 424 422 415 409 
3 5 0 0 0 4 6 423 422 421 420 418 415 
4 4 0 0 0 10 4 424 422 420 417 
5 4 0 0 0 5 3 421 420 416 
9 4 0 0 0 8 3 423 421 413 
1 4 0 0 0 2 3 423 422 415 
5 3 0 0 0 2 1 415 
9 4 0 0 0 7 2 420 419 
6 5 0 0 0 4 2 421 419 
6 9 0 0 0 6 1 417 
5 6 0 0 0 1 1 417 
5 6 0 0 0 6 1 419 
5 5 0 0 0 3 1 419 
2 4 0 0 0 5 1 426 
9 3 0 0 0 4 1 426 
4 9 0 0 0 6 1 426 
5 6 0 0 0 7 1 426 
3 5 0 0 0 6 1 426 
1 9 0 0 0 7 1 426 
5 4 0 0 0 5 1 426 
0 0 0 0 0 0 1 543 
0 0 0 0 0 0 15 428 432 435 436 437 438 439 440 441 442 443 444 445 446 447 
3 0 0 1 2 0 1 429 
7 0 0 4 4 0 2 434 430 
8 0 0 6 5 0 1 431 
8 0 0 6 5 0 1 433 
2 0 0 6 3 0 1 433 
5 0 0 7 6 0 1 448 
3 0 0 6 3 0 1 448 
9 0 0 4 7 0 1 448 
1 0 0 8 5 0 1 448 
10 0 0 6 10 0 1 448 
5 0 0 4 8 0 1 448 
8 0 0 7 4 0 1 448 
4 0 0 7 5 0 1 448 
9 0 0 5 3 0 1 448 
10 0 0 5 2 0 1 448 
6 0 0 4 3 0 1 448 
7 0 0 5 4 0 1 448 
4 0 0 5 4 0 1 448 
3 0 0 3 7 0 1 448 
8 0 0 1 10 0 1 448 
0 0 0 0 0 0 1 543 
0 0 0 0 0 0 5 450 451 452 453 458 
8 0 0 1 1 0 3 461 457 454 
8 0 0 4 3 0 3 461 457 454 
8 0 0 6 6 0 4 469 460 457 455 
4 0 0 5 6 0 5 468 461 460 457 456 
5 0 0 5 3 0 4 469 468 460 456 
8 0 0 2 2 0 2 468 456 
2 0 0 6 6 0 4 466 463 462 459 
7 0 0 8 3 0 4 466 463 462 459 
1 0 0 4 7 0 4 469 468 461 460 
6 0 0 5 6 0 2 467 465 
1 0 0 7 8 0 2 466 464 
5 0 0 2 4 0 2 465 464 
1 0 0 3 4 0 1 464 
8 0 0 7 7 0 1 464 
9 0 0 3 5 0 1 470 
4 0 0 8 8 0 1 470 
10 0 0 7 4 0 1 470 
2 0 0 4 8 0 1 470 
3 0 0 8 8 0 1 470 
5 0 0 5 1 0 1 470 
0 0 0 0 0 0 1 543 
0 0 0 0 0 0 5 472 473 474 478 479 
6 0 1 0 0 0 2 477 475 
9 0 5 0 0 0 2 480 476 
5 0 4 0 0 0 2 480 476 
5 0 6 0 0 0 2 481 480 
9 0 4 0 0 0 1 481 
10 0 5 0 0 0 1 481 
2 0 5 0 0 0 1 480 
4 0 7 0 0 0 1 480 
9 0 7 0 0 0 1 482 
9 0 6 0 0 0 1 482 
0 0 0 0 0 0 5 483 495 507 519 531 
0 0 0 0 0 0 3 484 485 486 
4 0 0 1 0 0 6 493 492 491 490 489 487 
10 0 0 6 0 0 4 493 492 489 488 
6 0 0 4 0 0 4 491 490 489 488 
1 0 0 6 0 0 1 488 
5 0 0 8 0 0 1 494 
4 0 0 5 0 0 1 494 
5 0 0 8 0 0 1 494 
6 0 0 4 0 0 1 494 
4 0 0 4 0 0 1 494 
6 0 0 4 0 0 1 494 
0 0 0 0 0 0 1 543 
0 0 0 0 0 0 6 496 497 499 503 504 505 
4 0 1 0 0 0 2 501 498 
1 0 8 0 0 0 2 501 500 
2 0 4 0 0 0 1 502 
10 0 5 0 0 0 1 500 
6 0 5 0 0 0 1 506 
4 0 6 0 0 0 1 506 
8 0 9 0 0 0 1 506 
8 0 6 0 0 0 1 506 
10 0 3 0 0 0 1 506 
5 0 3 0 0 0 1 506 
0 0 0 0 0 0 1 543 
0 0 0 0 0 0 7 508 510 511 514 515 516 517 
9 0 0 0 0 1 1 509 
3 0 0 0 0 4 2 513 512 
1 0 0 0 0 7 1 512 
3 0 0 0 0 7 1 512 
1 0 0 0 0 6 1 518 
9 0 0 0 0 7 1 518 
2 0 0 0 0 4 1 518 
9 0 0 0 0 2 1 518 
4 0 0 0 0 6 1 518 
4 0 0 0 0 6 1 518 
0 0 0 0 0 0 1 543 
0 0 0 0 0 0 3 520 521 524 
4 0 0 0 1 0 4 529 527 523 522 
8 0 0 0 5 0 3 527 526 525 
4 0 0 0 5 0 1 526 
7 0 0 0 6 0 1 525 
6 0 0 0 6 0 1 528 
9 0 0 0 5 0 1 530 
10 0 0 0 4 0 1 530 
1 0 0 0 6 0 1 530 
10 0 0 0 6 0 1 530 
3 0 0 0 6 0 1 530 
0 0 0 0 0 0 1 543 
0 0 0 0 0 0 7 532 534 535 538 539 540 541 
5 0 0 0 1 0 1 533 
8 0 0 0 5 0 1 537 
9 0 0 0 6 0 1 536 
6 0 0 0 4 0 1 536 
2 0 0 0 8 0 1 542 
10 0 0 0 7 0 1 542 
10 0 0 0 4 0 1 542 
8 0 0 0 6 0 1 542 
6 0 0 0 4 0 1 542 
4 0 0 0 5 0 1 542 
0 0 0 0 0 0 1 543 
0 0 0 0 0 0 0 
